\ENCODING=ISO-8859-1
\Problem name: cplexmodel.lp

Minimize
 obj: 32.0624390837628 y_0_0_1 + 23 y_0_0_2 + 15.2970585407784 y_0_0_3
      + 27.0185121722126 y_0_0_4 + 32.2490309931942 y_0_0_5
      + 22.8035085019828 y_0_0_6 + 11.4017542509914 y_0_0_7
      + 25.4558441227157 y_0_0_8 + 32.4499614791759 y_0_0_9
      + 32.0624390837628 y_0_1_0 + 38.2753184180093 y_0_1_2
      + 47.0106370941726 y_0_1_3 + 24.2074368738204 y_0_1_4
      + 41.0365690573664 y_0_1_5 + 48.7031826475437 y_0_1_6
      + 41.3037528561268 y_0_1_7 + 21.2602916254693 y_0_1_8
      + 16.7630546142402 y_0_1_9 + 23 y_0_2_0 + 38.2753184180093 y_0_2_1
      + 25 y_0_2_3 + 17.1172427686237 y_0_2_4 + 9.8488578017961 y_0_2_5
      + 14.8660687473185 y_0_2_6 + 18.3575597506858 y_0_2_7
      + 18.6815416922694 y_0_2_8 + 27.459060435492 y_0_2_9
      + 15.2970585407784 y_0_3_0 + 47.0106370941726 y_0_3_1 + 25 y_0_3_2
      + 36.7151195013716 y_0_3_4 + 34.6698716467194 y_0_3_5
      + 15.0332963783729 y_0_3_6 + 7.21110255092798 y_0_3_7
      + 36.2491379207837 y_0_3_8 + 44.5982062419555 y_0_3_9
      + 27.0185121722126 y_0_4_0 + 24.2074368738204 y_0_4_1
      + 17.1172427686237 y_0_4_2 + 36.7151195013716 y_0_4_3
      + 17.0293863659264 y_0_4_5 + 31.1448230047949 y_0_4_6
      + 29.5296461204668 y_0_4_7 + 3.16227766016838 y_0_4_8
      + 10.4403065089106 y_0_4_9 + 32.2490309931942 y_0_5_0
      + 41.0365690573664 y_0_5_1 + 9.8488578017961 y_0_5_2
      + 34.6698716467194 y_0_5_3 + 17.0293863659264 y_0_5_4
      + 22.8035085019828 y_0_5_6 + 28.1780056072107 y_0_5_7
      + 19.7989898732233 y_0_5_8 + 26.9258240356725 y_0_5_9
      + 22.8035085019828 y_0_6_0 + 48.7031826475437 y_0_6_1
      + 14.8660687473185 y_0_6_2 + 15.0332963783729 y_0_6_3
      + 31.1448230047949 y_0_6_4 + 22.8035085019828 y_0_6_5
      + 12.0830459735946 y_0_6_7 + 32 y_0_6_8 + 41 y_0_6_9
      + 11.4017542509914 y_0_7_0 + 41.3037528561268 y_0_7_1
      + 18.3575597506858 y_0_7_2 + 7.21110255092798 y_0_7_3
      + 29.5296461204668 y_0_7_4 + 28.1780056072107 y_0_7_5
      + 12.0830459735946 y_0_7_6 + 29.1547594742265 y_0_7_8
      + 37.6430604494374 y_0_7_9 + 25.4558441227157 y_0_8_0
      + 21.2602916254693 y_0_8_1 + 18.6815416922694 y_0_8_2
      + 36.2491379207837 y_0_8_3 + 3.16227766016838 y_0_8_4
      + 19.7989898732233 y_0_8_5 + 32 y_0_8_6 + 29.1547594742265 y_0_8_7
      + 9 y_0_8_9 + 32.4499614791759 y_0_9_0 + 16.7630546142402 y_0_9_1
      + 27.459060435492 y_0_9_2 + 44.5982062419555 y_0_9_3
      + 10.4403065089106 y_0_9_4 + 26.9258240356725 y_0_9_5 + 41 y_0_9_6
      + 37.6430604494374 y_0_9_7 + 9 y_0_9_8
Subject To
 c1:   16 y_0_0_1 + 11 y_0_0_2 + y_0_0_3 + 28 y_0_0_4 + 50 y_0_0_5 + 6 y_0_0_6
       + 39 y_0_0_7 + 25 y_0_0_8 + 5 y_0_0_9 + 11 y_0_1_2 + y_0_1_3
       + 28 y_0_1_4 + 50 y_0_1_5 + 6 y_0_1_6 + 39 y_0_1_7 + 25 y_0_1_8
       + 5 y_0_1_9 + 16 y_0_2_1 + y_0_2_3 + 28 y_0_2_4 + 50 y_0_2_5 + 6 y_0_2_6
       + 39 y_0_2_7 + 25 y_0_2_8 + 5 y_0_2_9 + 16 y_0_3_1 + 11 y_0_3_2
       + 28 y_0_3_4 + 50 y_0_3_5 + 6 y_0_3_6 + 39 y_0_3_7 + 25 y_0_3_8
       + 5 y_0_3_9 + 16 y_0_4_1 + 11 y_0_4_2 + y_0_4_3 + 50 y_0_4_5 + 6 y_0_4_6
       + 39 y_0_4_7 + 25 y_0_4_8 + 5 y_0_4_9 + 16 y_0_5_1 + 11 y_0_5_2
       + y_0_5_3 + 28 y_0_5_4 + 6 y_0_5_6 + 39 y_0_5_7 + 25 y_0_5_8 + 5 y_0_5_9
       + 16 y_0_6_1 + 11 y_0_6_2 + y_0_6_3 + 28 y_0_6_4 + 50 y_0_6_5
       + 39 y_0_6_7 + 25 y_0_6_8 + 5 y_0_6_9 + 16 y_0_7_1 + 11 y_0_7_2
       + y_0_7_3 + 28 y_0_7_4 + 50 y_0_7_5 + 6 y_0_7_6 + 25 y_0_7_8 + 5 y_0_7_9
       + 16 y_0_8_1 + 11 y_0_8_2 + y_0_8_3 + 28 y_0_8_4 + 50 y_0_8_5
       + 6 y_0_8_6 + 39 y_0_8_7 + 5 y_0_8_9 + 16 y_0_9_1 + 11 y_0_9_2 + y_0_9_3
       + 28 y_0_9_4 + 50 y_0_9_5 + 6 y_0_9_6 + 39 y_0_9_7 + 25 y_0_9_8 <= 402
 c2:   y_0_0_1 + y_0_0_2 + y_0_0_3 + y_0_0_4 + y_0_0_5 + y_0_0_6 + y_0_0_7
       + y_0_0_8 + y_0_0_9  = 1
 c3:   y_0_1_0 + y_0_1_2 + y_0_1_3 + y_0_1_4 + y_0_1_5 + y_0_1_6 + y_0_1_7
       + y_0_1_8 + y_0_1_9  = 1
 c4:   y_0_2_0 + y_0_2_1 + y_0_2_3 + y_0_2_4 + y_0_2_5 + y_0_2_6 + y_0_2_7
       + y_0_2_8 + y_0_2_9  = 1
 c5:   y_0_3_0 + y_0_3_1 + y_0_3_2 + y_0_3_4 + y_0_3_5 + y_0_3_6 + y_0_3_7
       + y_0_3_8 + y_0_3_9  = 1
 c6:   y_0_4_0 + y_0_4_1 + y_0_4_2 + y_0_4_3 + y_0_4_5 + y_0_4_6 + y_0_4_7
       + y_0_4_8 + y_0_4_9  = 1
 c7:   y_0_5_0 + y_0_5_1 + y_0_5_2 + y_0_5_3 + y_0_5_4 + y_0_5_6 + y_0_5_7
       + y_0_5_8 + y_0_5_9  = 1
 c8:   y_0_6_0 + y_0_6_1 + y_0_6_2 + y_0_6_3 + y_0_6_4 + y_0_6_5 + y_0_6_7
       + y_0_6_8 + y_0_6_9  = 1
 c9:   y_0_7_0 + y_0_7_1 + y_0_7_2 + y_0_7_3 + y_0_7_4 + y_0_7_5 + y_0_7_6
       + y_0_7_8 + y_0_7_9  = 1
 c10:  y_0_8_0 + y_0_8_1 + y_0_8_2 + y_0_8_3 + y_0_8_4 + y_0_8_5 + y_0_8_6
       + y_0_8_7 + y_0_8_9  = 1
 c11:  y_0_9_0 + y_0_9_1 + y_0_9_2 + y_0_9_3 + y_0_9_4 + y_0_9_5 + y_0_9_6
       + y_0_9_7 + y_0_9_8  = 1
 c12:  y_0_1_0 + y_0_2_0 + y_0_3_0 + y_0_4_0 + y_0_5_0 + y_0_6_0 + y_0_7_0
       + y_0_8_0 + y_0_9_0  = 1
 c13:  y_0_0_1 + y_0_2_1 + y_0_3_1 + y_0_4_1 + y_0_5_1 + y_0_6_1 + y_0_7_1
       + y_0_8_1 + y_0_9_1  = 1
 c14:  y_0_0_2 + y_0_1_2 + y_0_3_2 + y_0_4_2 + y_0_5_2 + y_0_6_2 + y_0_7_2
       + y_0_8_2 + y_0_9_2  = 1
 c15:  y_0_0_3 + y_0_1_3 + y_0_2_3 + y_0_4_3 + y_0_5_3 + y_0_6_3 + y_0_7_3
       + y_0_8_3 + y_0_9_3  = 1
 c16:  y_0_0_4 + y_0_1_4 + y_0_2_4 + y_0_3_4 + y_0_5_4 + y_0_6_4 + y_0_7_4
       + y_0_8_4 + y_0_9_4  = 1
 c17:  y_0_0_5 + y_0_1_5 + y_0_2_5 + y_0_3_5 + y_0_4_5 + y_0_6_5 + y_0_7_5
       + y_0_8_5 + y_0_9_5  = 1
 c18:  y_0_0_6 + y_0_1_6 + y_0_2_6 + y_0_3_6 + y_0_4_6 + y_0_5_6 + y_0_7_6
       + y_0_8_6 + y_0_9_6  = 1
 c19:  y_0_0_7 + y_0_1_7 + y_0_2_7 + y_0_3_7 + y_0_4_7 + y_0_5_7 + y_0_6_7
       + y_0_8_7 + y_0_9_7  = 1
 c20:  y_0_0_8 + y_0_1_8 + y_0_2_8 + y_0_3_8 + y_0_4_8 + y_0_5_8 + y_0_6_8
       + y_0_7_8 + y_0_9_8  = 1
 c21:  y_0_0_9 + y_0_1_9 + y_0_2_9 + y_0_3_9 + y_0_4_9 + y_0_5_9 + y_0_6_9
       + y_0_7_9 + y_0_8_9  = 1
 c22:  - y_0_0_1 - y_0_0_2 - y_0_0_3 - y_0_0_4 - y_0_0_5 - y_0_0_6 - y_0_0_7
       - y_0_0_8 - y_0_0_9 + y_0_1_0 + y_0_2_0 + y_0_3_0 + y_0_4_0 + y_0_5_0
       + y_0_6_0 + y_0_7_0 + y_0_8_0 + y_0_9_0  = 0
 c23:  y_0_0_1 - y_0_1_0 - y_0_1_2 - y_0_1_3 - y_0_1_4 - y_0_1_5 - y_0_1_6
       - y_0_1_7 - y_0_1_8 - y_0_1_9 + y_0_2_1 + y_0_3_1 + y_0_4_1 + y_0_5_1
       + y_0_6_1 + y_0_7_1 + y_0_8_1 + y_0_9_1  = 0
 c24:  y_0_0_2 + y_0_1_2 - y_0_2_0 - y_0_2_1 - y_0_2_3 - y_0_2_4 - y_0_2_5
       - y_0_2_6 - y_0_2_7 - y_0_2_8 - y_0_2_9 + y_0_3_2 + y_0_4_2 + y_0_5_2
       + y_0_6_2 + y_0_7_2 + y_0_8_2 + y_0_9_2  = 0
 c25:  y_0_0_3 + y_0_1_3 + y_0_2_3 - y_0_3_0 - y_0_3_1 - y_0_3_2 - y_0_3_4
       - y_0_3_5 - y_0_3_6 - y_0_3_7 - y_0_3_8 - y_0_3_9 + y_0_4_3 + y_0_5_3
       + y_0_6_3 + y_0_7_3 + y_0_8_3 + y_0_9_3  = 0
 c26:  y_0_0_4 + y_0_1_4 + y_0_2_4 + y_0_3_4 - y_0_4_0 - y_0_4_1 - y_0_4_2
       - y_0_4_3 - y_0_4_5 - y_0_4_6 - y_0_4_7 - y_0_4_8 - y_0_4_9 + y_0_5_4
       + y_0_6_4 + y_0_7_4 + y_0_8_4 + y_0_9_4  = 0
 c27:  y_0_0_5 + y_0_1_5 + y_0_2_5 + y_0_3_5 + y_0_4_5 - y_0_5_0 - y_0_5_1
       - y_0_5_2 - y_0_5_3 - y_0_5_4 - y_0_5_6 - y_0_5_7 - y_0_5_8 - y_0_5_9
       + y_0_6_5 + y_0_7_5 + y_0_8_5 + y_0_9_5  = 0
 c28:  y_0_0_6 + y_0_1_6 + y_0_2_6 + y_0_3_6 + y_0_4_6 + y_0_5_6 - y_0_6_0
       - y_0_6_1 - y_0_6_2 - y_0_6_3 - y_0_6_4 - y_0_6_5 - y_0_6_7 - y_0_6_8
       - y_0_6_9 + y_0_7_6 + y_0_8_6 + y_0_9_6  = 0
 c29:  y_0_0_7 + y_0_1_7 + y_0_2_7 + y_0_3_7 + y_0_4_7 + y_0_5_7 + y_0_6_7
       - y_0_7_0 - y_0_7_1 - y_0_7_2 - y_0_7_3 - y_0_7_4 - y_0_7_5 - y_0_7_6
       - y_0_7_8 - y_0_7_9 + y_0_8_7 + y_0_9_7  = 0
 c30:  y_0_0_8 + y_0_1_8 + y_0_2_8 + y_0_3_8 + y_0_4_8 + y_0_5_8 + y_0_6_8
       + y_0_7_8 - y_0_8_0 - y_0_8_1 - y_0_8_2 - y_0_8_3 - y_0_8_4 - y_0_8_5
       - y_0_8_6 - y_0_8_7 - y_0_8_9 + y_0_9_8  = 0
 c31:  y_0_0_9 + y_0_1_9 + y_0_2_9 + y_0_3_9 + y_0_4_9 + y_0_5_9 + y_0_6_9
       + y_0_7_9 + y_0_8_9 - y_0_9_0 - y_0_9_1 - y_0_9_2 - y_0_9_3 - y_0_9_4
       - y_0_9_5 - y_0_9_6 - y_0_9_7 - y_0_9_8  = 0
 c32:  10000000 y_0_0_1 + t_0_0 - t_0_1 <= 9999999
 c33:  10000000 y_0_0_2 + t_0_0 - t_0_2 <= 9999999
 c34:  10000000 y_0_0_3 + t_0_0 - t_0_3 <= 9999999
 c35:  10000000 y_0_0_4 + t_0_0 - t_0_4 <= 9999999
 c36:  10000000 y_0_0_5 + t_0_0 - t_0_5 <= 9999999
 c37:  10000000 y_0_0_6 + t_0_0 - t_0_6 <= 9999999
 c38:  10000000 y_0_0_7 + t_0_0 - t_0_7 <= 9999999
 c39:  10000000 y_0_0_8 + t_0_0 - t_0_8 <= 9999999
 c40:  10000000 y_0_0_9 + t_0_0 - t_0_9 <= 9999999
 c41:  10000000 y_0_1_0 - t_0_0 + t_0_1 <= 9999999
 c42:  10000000 y_0_1_2 + t_0_1 - t_0_2 <= 9999999
 c43:  10000000 y_0_1_3 + t_0_1 - t_0_3 <= 9999999
 c44:  10000000 y_0_1_4 + t_0_1 - t_0_4 <= 9999999
 c45:  10000000 y_0_1_5 + t_0_1 - t_0_5 <= 9999999
 c46:  10000000 y_0_1_6 + t_0_1 - t_0_6 <= 9999999
 c47:  10000000 y_0_1_7 + t_0_1 - t_0_7 <= 9999999
 c48:  10000000 y_0_1_8 + t_0_1 - t_0_8 <= 9999999
 c49:  10000000 y_0_1_9 + t_0_1 - t_0_9 <= 9999999
 c50:  10000000 y_0_2_0 - t_0_0 + t_0_2 <= 9999999
 c51:  10000000 y_0_2_1 - t_0_1 + t_0_2 <= 9999999
 c52:  10000000 y_0_2_3 + t_0_2 - t_0_3 <= 9999999
 c53:  10000000 y_0_2_4 + t_0_2 - t_0_4 <= 9999999
 c54:  10000000 y_0_2_5 + t_0_2 - t_0_5 <= 9999999
 c55:  10000000 y_0_2_6 + t_0_2 - t_0_6 <= 9999999
 c56:  10000000 y_0_2_7 + t_0_2 - t_0_7 <= 9999999
 c57:  10000000 y_0_2_8 + t_0_2 - t_0_8 <= 9999999
 c58:  10000000 y_0_2_9 + t_0_2 - t_0_9 <= 9999999
 c59:  10000000 y_0_3_0 - t_0_0 + t_0_3 <= 9999999
 c60:  10000000 y_0_3_1 - t_0_1 + t_0_3 <= 9999999
 c61:  10000000 y_0_3_2 - t_0_2 + t_0_3 <= 9999999
 c62:  10000000 y_0_3_4 + t_0_3 - t_0_4 <= 9999999
 c63:  10000000 y_0_3_5 + t_0_3 - t_0_5 <= 9999999
 c64:  10000000 y_0_3_6 + t_0_3 - t_0_6 <= 9999999
 c65:  10000000 y_0_3_7 + t_0_3 - t_0_7 <= 9999999
 c66:  10000000 y_0_3_8 + t_0_3 - t_0_8 <= 9999999
 c67:  10000000 y_0_3_9 + t_0_3 - t_0_9 <= 9999999
 c68:  10000000 y_0_4_0 - t_0_0 + t_0_4 <= 9999999
 c69:  10000000 y_0_4_1 - t_0_1 + t_0_4 <= 9999999
 c70:  10000000 y_0_4_2 - t_0_2 + t_0_4 <= 9999999
 c71:  10000000 y_0_4_3 - t_0_3 + t_0_4 <= 9999999
 c72:  10000000 y_0_4_5 + t_0_4 - t_0_5 <= 9999999
 c73:  10000000 y_0_4_6 + t_0_4 - t_0_6 <= 9999999
 c74:  10000000 y_0_4_7 + t_0_4 - t_0_7 <= 9999999
 c75:  10000000 y_0_4_8 + t_0_4 - t_0_8 <= 9999999
 c76:  10000000 y_0_4_9 + t_0_4 - t_0_9 <= 9999999
 c77:  10000000 y_0_5_0 - t_0_0 + t_0_5 <= 9999999
 c78:  10000000 y_0_5_1 - t_0_1 + t_0_5 <= 9999999
 c79:  10000000 y_0_5_2 - t_0_2 + t_0_5 <= 9999999
 c80:  10000000 y_0_5_3 - t_0_3 + t_0_5 <= 9999999
 c81:  10000000 y_0_5_4 - t_0_4 + t_0_5 <= 9999999
 c82:  10000000 y_0_5_6 + t_0_5 - t_0_6 <= 9999999
 c83:  10000000 y_0_5_7 + t_0_5 - t_0_7 <= 9999999
 c84:  10000000 y_0_5_8 + t_0_5 - t_0_8 <= 9999999
 c85:  10000000 y_0_5_9 + t_0_5 - t_0_9 <= 9999999
 c86:  10000000 y_0_6_0 - t_0_0 + t_0_6 <= 9999999
 c87:  10000000 y_0_6_1 - t_0_1 + t_0_6 <= 9999999
 c88:  10000000 y_0_6_2 - t_0_2 + t_0_6 <= 9999999
 c89:  10000000 y_0_6_3 - t_0_3 + t_0_6 <= 9999999
 c90:  10000000 y_0_6_4 - t_0_4 + t_0_6 <= 9999999
 c91:  10000000 y_0_6_5 - t_0_5 + t_0_6 <= 9999999
 c92:  10000000 y_0_6_7 + t_0_6 - t_0_7 <= 9999999
 c93:  10000000 y_0_6_8 + t_0_6 - t_0_8 <= 9999999
 c94:  10000000 y_0_6_9 + t_0_6 - t_0_9 <= 9999999
 c95:  10000000 y_0_7_0 - t_0_0 + t_0_7 <= 9999999
 c96:  10000000 y_0_7_1 - t_0_1 + t_0_7 <= 9999999
 c97:  10000000 y_0_7_2 - t_0_2 + t_0_7 <= 9999999
 c98:  10000000 y_0_7_3 - t_0_3 + t_0_7 <= 9999999
 c99:  10000000 y_0_7_4 - t_0_4 + t_0_7 <= 9999999
 c100: 10000000 y_0_7_5 - t_0_5 + t_0_7 <= 9999999
 c101: 10000000 y_0_7_6 - t_0_6 + t_0_7 <= 9999999
 c102: 10000000 y_0_7_8 + t_0_7 - t_0_8 <= 9999999
 c103: 10000000 y_0_7_9 + t_0_7 - t_0_9 <= 9999999
 c104: 10000000 y_0_8_0 - t_0_0 + t_0_8 <= 9999999
 c105: 10000000 y_0_8_1 - t_0_1 + t_0_8 <= 9999999
 c106: 10000000 y_0_8_2 - t_0_2 + t_0_8 <= 9999999
 c107: 10000000 y_0_8_3 - t_0_3 + t_0_8 <= 9999999
 c108: 10000000 y_0_8_4 - t_0_4 + t_0_8 <= 9999999
 c109: 10000000 y_0_8_5 - t_0_5 + t_0_8 <= 9999999
 c110: 10000000 y_0_8_6 - t_0_6 + t_0_8 <= 9999999
 c111: 10000000 y_0_8_7 - t_0_7 + t_0_8 <= 9999999
 c112: 10000000 y_0_8_9 + t_0_8 - t_0_9 <= 9999999
 c113: 10000000 y_0_9_0 - t_0_0 + t_0_9 <= 9999999
 c114: 10000000 y_0_9_1 - t_0_1 + t_0_9 <= 9999999
 c115: 10000000 y_0_9_2 - t_0_2 + t_0_9 <= 9999999
 c116: 10000000 y_0_9_3 - t_0_3 + t_0_9 <= 9999999
 c117: 10000000 y_0_9_4 - t_0_4 + t_0_9 <= 9999999
 c118: 10000000 y_0_9_5 - t_0_5 + t_0_9 <= 9999999
 c119: 10000000 y_0_9_6 - t_0_6 + t_0_9 <= 9999999
 c120: 10000000 y_0_9_7 - t_0_7 + t_0_9 <= 9999999
 c121: 10000000 y_0_9_8 - t_0_8 + t_0_9 <= 9999999
 c122: y_0_0_1 + y_0_0_2 + y_0_0_3 + y_0_0_4 + y_0_0_5 + y_0_0_6 + y_0_0_7
       + y_0_0_8 + y_0_0_9  = 1
 c123: y_0_1_0 + y_0_2_0 + y_0_3_0 + y_0_4_0 + y_0_5_0 + y_0_6_0 + y_0_7_0
       + y_0_8_0 + y_0_9_0  = 1
Bounds
 0 <= y_0_0_1 <= 1
 0 <= y_0_0_2 <= 1
 0 <= y_0_0_3 <= 1
 0 <= y_0_0_4 <= 1
 0 <= y_0_0_5 <= 1
 0 <= y_0_0_6 <= 1
 0 <= y_0_0_7 <= 1
 0 <= y_0_0_8 <= 1
 0 <= y_0_0_9 <= 1
 0 <= y_0_1_0 <= 1
 0 <= y_0_1_2 <= 1
 0 <= y_0_1_3 <= 1
 0 <= y_0_1_4 <= 1
 0 <= y_0_1_5 <= 1
 0 <= y_0_1_6 <= 1
 0 <= y_0_1_7 <= 1
 0 <= y_0_1_8 <= 1
 0 <= y_0_1_9 <= 1
 0 <= y_0_2_0 <= 1
 0 <= y_0_2_1 <= 1
 0 <= y_0_2_3 <= 1
 0 <= y_0_2_4 <= 1
 0 <= y_0_2_5 <= 1
 0 <= y_0_2_6 <= 1
 0 <= y_0_2_7 <= 1
 0 <= y_0_2_8 <= 1
 0 <= y_0_2_9 <= 1
 0 <= y_0_3_0 <= 1
 0 <= y_0_3_1 <= 1
 0 <= y_0_3_2 <= 1
 0 <= y_0_3_4 <= 1
 0 <= y_0_3_5 <= 1
 0 <= y_0_3_6 <= 1
 0 <= y_0_3_7 <= 1
 0 <= y_0_3_8 <= 1
 0 <= y_0_3_9 <= 1
 0 <= y_0_4_0 <= 1
 0 <= y_0_4_1 <= 1
 0 <= y_0_4_2 <= 1
 0 <= y_0_4_3 <= 1
 0 <= y_0_4_5 <= 1
 0 <= y_0_4_6 <= 1
 0 <= y_0_4_7 <= 1
 0 <= y_0_4_8 <= 1
 0 <= y_0_4_9 <= 1
 0 <= y_0_5_0 <= 1
 0 <= y_0_5_1 <= 1
 0 <= y_0_5_2 <= 1
 0 <= y_0_5_3 <= 1
 0 <= y_0_5_4 <= 1
 0 <= y_0_5_6 <= 1
 0 <= y_0_5_7 <= 1
 0 <= y_0_5_8 <= 1
 0 <= y_0_5_9 <= 1
 0 <= y_0_6_0 <= 1
 0 <= y_0_6_1 <= 1
 0 <= y_0_6_2 <= 1
 0 <= y_0_6_3 <= 1
 0 <= y_0_6_4 <= 1
 0 <= y_0_6_5 <= 1
 0 <= y_0_6_7 <= 1
 0 <= y_0_6_8 <= 1
 0 <= y_0_6_9 <= 1
 0 <= y_0_7_0 <= 1
 0 <= y_0_7_1 <= 1
 0 <= y_0_7_2 <= 1
 0 <= y_0_7_3 <= 1
 0 <= y_0_7_4 <= 1
 0 <= y_0_7_5 <= 1
 0 <= y_0_7_6 <= 1
 0 <= y_0_7_8 <= 1
 0 <= y_0_7_9 <= 1
 0 <= y_0_8_0 <= 1
 0 <= y_0_8_1 <= 1
 0 <= y_0_8_2 <= 1
 0 <= y_0_8_3 <= 1
 0 <= y_0_8_4 <= 1
 0 <= y_0_8_5 <= 1
 0 <= y_0_8_6 <= 1
 0 <= y_0_8_7 <= 1
 0 <= y_0_8_9 <= 1
 0 <= y_0_9_0 <= 1
 0 <= y_0_9_1 <= 1
 0 <= y_0_9_2 <= 1
 0 <= y_0_9_3 <= 1
 0 <= y_0_9_4 <= 1
 0 <= y_0_9_5 <= 1
 0 <= y_0_9_6 <= 1
 0 <= y_0_9_7 <= 1
 0 <= y_0_9_8 <= 1
 0 <= t_0_0 <= 11
 0 <= t_0_1 <= 11
 0 <= t_0_2 <= 11
 0 <= t_0_3 <= 11
 0 <= t_0_4 <= 11
 0 <= t_0_5 <= 11
 0 <= t_0_6 <= 11
 0 <= t_0_7 <= 11
 0 <= t_0_8 <= 11
 0 <= t_0_9 <= 11
Binaries
 y_0_0_1  y_0_0_2  y_0_0_3  y_0_0_4  y_0_0_5  y_0_0_6  y_0_0_7  y_0_0_8 
 y_0_0_9  y_0_1_0  y_0_1_2  y_0_1_3  y_0_1_4  y_0_1_5  y_0_1_6  y_0_1_7 
 y_0_1_8  y_0_1_9  y_0_2_0  y_0_2_1  y_0_2_3  y_0_2_4  y_0_2_5  y_0_2_6 
 y_0_2_7  y_0_2_8  y_0_2_9  y_0_3_0  y_0_3_1  y_0_3_2  y_0_3_4  y_0_3_5 
 y_0_3_6  y_0_3_7  y_0_3_8  y_0_3_9  y_0_4_0  y_0_4_1  y_0_4_2  y_0_4_3 
 y_0_4_5  y_0_4_6  y_0_4_7  y_0_4_8  y_0_4_9  y_0_5_0  y_0_5_1  y_0_5_2 
 y_0_5_3  y_0_5_4  y_0_5_6  y_0_5_7  y_0_5_8  y_0_5_9  y_0_6_0  y_0_6_1 
 y_0_6_2  y_0_6_3  y_0_6_4  y_0_6_5  y_0_6_7  y_0_6_8  y_0_6_9  y_0_7_0 
 y_0_7_1  y_0_7_2  y_0_7_3  y_0_7_4  y_0_7_5  y_0_7_6  y_0_7_8  y_0_7_9 
 y_0_8_0  y_0_8_1  y_0_8_2  y_0_8_3  y_0_8_4  y_0_8_5  y_0_8_6  y_0_8_7 
 y_0_8_9  y_0_9_0  y_0_9_1  y_0_9_2  y_0_9_3  y_0_9_4  y_0_9_5  y_0_9_6 
 y_0_9_7  y_0_9_8 
Generals
 t_0_0  t_0_1  t_0_2  t_0_3  t_0_4  t_0_5  t_0_6  t_0_7  t_0_8  t_0_9 
End
